tsp_instances/TSP20/instance118.tsp
NODE_COORD_SECTION
0 129 180
1 178 105
2 59 52
3 72 187
4 133 11
5 43 70
6 196 108
7 187 180
8 174 141
9 144 60
10 3 75
11 50 86
12 62 41
13 32 89
14 122 94
15 74 147
16 121 31
17 97 187
18 114 67
19 82 95
