tsp_instances/TSP20/instance118.opt.tour
TOUR_SECTION
1
8
9
7
2
15
19
10
5
17
13
3
6
11
14
12
20
16
4
18
-1